\* Production_120kgs *\
Minimize
Cout_total_des_ingrÈdients: 4.1 Alliage1 + 4.3 Alliage2 + 5.8 Alliage3
 + 6 Alliage4 + 7.6 Alliage5 + 7.5 Alliage6 + 7.3 Alliage7 + 6.9 Alliage8
 + 7.3 Alliage9
Subject To
etain: 80 Alliage1 + 60 Alliage2 + 10 Alliage3 + 10 Alliage4 + 40 Alliage5
 + 30 Alliage6 + 50 Alliage7 + 10 Alliage8 + 50 Alliage9 = 3600
plomb: 10 Alliage1 + 10 Alliage2 + 40 Alliage3 + 60 Alliage4 + 30 Alliage5
 + 30 Alliage6 + 30 Alliage7 + 50 Alliage8 + 20 Alliage9 = 3600
zinc: 10 Alliage1 + 30 Alliage2 + 50 Alliage3 + 30 Alliage4 + 30 Alliage5
 + 40 Alliage6 + 20 Alliage7 + 40 Alliage8 + 30 Alliage9 = 3600
End
